p cnf 10 50
2 -7 -9 0
-7 9 -6 0
-8 7 -4 0
-2 1 -10 0
-7 4 -6 0
-8 -1 -2 0
7 -8 5 0
-2 8 7 0
9 -8 -10 0
-10 -1 -9 0
-4 8 6 0
9 -6 -4 0
9 -7 3 0
1 -9 -7 0
10 2 9 0
5 8 -2 0
-7 -6 -10 0
3 -1 6 0
-7 -8 -10 0
-7 -6 -2 0
-5 -10 -7 0
-5 8 9 0
-1 10 3 0
-2 -8 -6 0
9 -3 -4 0
-6 -7 -1 0
1 -4 -8 0
6 -3 10 0
2 -6 -8 0
-9 -1 8 0
6 -3 -1 0
-1 -9 4 0
-1 6 -8 0
-5 -4 -10 0
2 -9 -8 0
6 -10 -2 0
-9 7 6 0
7 5 -9 0
2 -8 5 0
-4 5 -6 0
1 2 -10 0
10 -9 -8 0
10 8 7 0
-5 -7 4 0
-4 -7 -5 0
-6 4 2 0
-2 6 -10 0
4 -2 3 0
-7 9 2 0
-1 5 -10 0